; Property from "Productive Use of Failure in Inductive Proof",
; Andrew Ireland and Alan Bundy, JAR 1996
(declare-datatypes () ((Nat (Z) (S (p Nat)))))
(define-fun-rec
  plus
    ((x Nat) (y Nat)) Nat
    (match x
      (case Z y)
      (case (S z) (S (plus z y)))))
(define-fun-rec
  half
    ((x Nat)) Nat
    (match x
      (case Z Z)
      (case (S y)
        (match y
          (case Z Z)
          (case (S z) (S (half z)))))))
(assert-not
  (forall ((x Nat) (y Nat)) (= (half (plus x y)) (half (plus y x)))))
(check-sat)
